NAME : XML100_3152_07
DIMENSION : 101
NB_CLUSTERS : 5
CLUSTERING_ALG : KMedoids
CLUSTERING_PARAMS : k(4)
CLUSTERS
1 0
2 3 6 11 20 21 25 30 32 33 37 47 49 50 51 53 54 62 65 67 72 75 79 80 81 85 86 89 99
3 7 12 16 17 19 23 28 34 35 36 39 40 41 42 44 45 52 55 59 61 63 71 73 76 78 87 92 96
4 1 2 4 13 24 27 31 56 66 68 70 82 88 91 93 95 98
5 5 8 9 10 14 15 18 22 26 29 38 43 46 48 57 58 60 64 69 74 77 83 84 90 94 97 100
EOF